3526.99 0
0 188 187 175 176 59 186 196 192 198 193 194 199 197 0
0 174 154 179 178 180 181 182 183 116 185 184 195 0
0 169 161 163 189 165 164 170 167 166 173 171 172 0
0 151 147 148 162 160 158 156 157 152 153 150 168 0
0 133 134 149 126 143 137 142 141 136 144 146 139 140 155 138 0
0 127 125 120 121 122 128 177 132 119 129 131 135 130 0
0 111 108 109 117 112 114 113 115 104 159 107 118 110 0
0 98 79 124 103 94 101 93 91 89 96 95 106 97 100 102 99 0
0 87 81 76 92 80 77 85 84 83 88 82 86 90 0
0 65 123 70 78 69 71 75 72 73 63 74 67 68 0
0 61 105 53 62 64 54 55 56 57 52 58 60 0
0 43 42 66 46 51 40 44 45 47 48 0
0 34 35 38 31 39 50 32 145 41 190 33 36 37 0
0 29 13 27 26 17 25 24 28 21 30 0
0 11 14 19 7 12 18 49 16 23 22 20 15 0
0 6 2 5 4 8 10 9 3 191 1 0